! Anvil openEMS model rf_in from rffe.kicad_pcb
! ports J1.1,U2.1
# Hz S RI R 50
1.500000000e+09 -1.382016432e-01 -3.804415393e-02 7.062705106e-01 -6.704307444e-01 7.196684594e-01 -6.722686258e-01 -7.442520926e-02 -3.224481549e-02
1.505000000e+09 -1.382446252e-01 -3.706583637e-02 7.040783352e-01 -6.728236680e-01 7.174148589e-01 -6.747492434e-01 -7.379106054e-02 -3.182745278e-02
1.510000000e+09 -1.382823056e-01 -3.608931589e-02 7.018779625e-01 -6.752071910e-01 7.151529899e-01 -6.772197906e-01 -7.315483253e-02 -3.141695653e-02
1.515000000e+09 -1.383147307e-01 -3.511465885e-02 6.996694495e-01 -6.775812470e-01 7.128829101e-01 -6.796802101e-01 -7.251658223e-02 -3.101336046e-02
1.520000000e+09 -1.383419492e-01 -3.414192853e-02 6.974528562e-01 -6.799457726e-01 7.106046794e-01 -6.821304474e-01 -7.187636845e-02 -3.061669632e-02
1.525000000e+09 -1.383640121e-01 -3.317118507e-02 6.952282448e-01 -6.823007065e-01 7.083183591e-01 -6.845704504e-01 -7.123425164e-02 -3.022699388e-02
1.530000000e+09 -1.383809723e-01 -3.220248552e-02 6.929956801e-01 -6.846459903e-01 7.060240124e-01 -6.870001698e-01 -7.059029385e-02 -2.984428087e-02
1.535000000e+09 -1.383928843e-01 -3.123588374e-02 6.907552289e-01 -6.869815683e-01 7.037217042e-01 -6.894195584e-01 -6.994455853e-02 -2.946858300e-02
1.540000000e+09 -1.383998043e-01 -3.027143049e-02 6.885069601e-01 -6.893073874e-01 7.014115005e-01 -6.918285720e-01 -6.929711051e-02 -2.909992391e-02
1.545000000e+09 -1.384017898e-01 -2.930917337e-02 6.862509447e-01 -6.916233973e-01 6.990934688e-01 -6.942271686e-01 -6.864801582e-02 -2.873832514e-02
1.550000000e+09 -1.383988997e-01 -2.834915686e-02 6.839872550e-01 -6.939295504e-01 6.967676779e-01 -6.966153088e-01 -6.799734163e-02 -2.838380617e-02
1.555000000e+09 -1.383911937e-01 -2.739142231e-02 6.817159653e-01 -6.962258019e-01 6.944341976e-01 -6.989929557e-01 -6.734515613e-02 -2.803638433e-02
1.560000000e+09 -1.383787325e-01 -2.643600802e-02 6.794371511e-01 -6.985121097e-01 6.920930986e-01 -7.013600748e-01 -6.669152842e-02 -2.769607489e-02
1.565000000e+09 -1.383615775e-01 -2.548294920e-02 6.771508892e-01 -7.007884343e-01 6.897444526e-01 -7.037166340e-01 -6.603652841e-02 -2.736289095e-02
1.570000000e+09 -1.383397905e-01 -2.453227806e-02 6.748572575e-01 -7.030547393e-01 6.873883321e-01 -7.060626037e-01 -6.538022675e-02 -2.703684354e-02
1.575000000e+09 -1.383134340e-01 -2.358402381e-02 6.725563350e-01 -7.053109906e-01 6.850248103e-01 -7.083979565e-01 -6.472269469e-02 -2.671794156e-02
1.580000000e+09 -1.382825706e-01 -2.263821274e-02 6.702482016e-01 -7.075571570e-01 6.826539608e-01 -7.107226674e-01 -6.406400403e-02 -2.640619180e-02
1.585000000e+09 -1.382472629e-01 -2.169486825e-02 6.679329378e-01 -7.097932101e-01 6.802758578e-01 -7.130367138e-01 -6.340422697e-02 -2.610159896e-02
1.590000000e+09 -1.382075738e-01 -2.075401092e-02 6.656106247e-01 -7.120191239e-01 6.778905759e-01 -7.153400752e-01 -6.274343610e-02 -2.580416568e-02
1.595000000e+09 -1.381635657e-01 -1.981565852e-02 6.632813439e-01 -7.142348751e-01 6.754981900e-01 -7.176327334e-01 -6.208170422e-02 -2.551389249e-02
1.600000000e+09 -1.381153010e-01 -1.887982615e-02 6.609451776e-01 -7.164404431e-01 6.730987752e-01 -7.199146723e-01 -6.141910434e-02 -2.523077790e-02
1.605000000e+09 -1.380628418e-01 -1.794652623e-02 6.586022078e-01 -7.186358096e-01 6.706924067e-01 -7.221858781e-01 -6.075570954e-02 -2.495481839e-02
1.610000000e+09 -1.380062494e-01 -1.701576861e-02 6.562525171e-01 -7.208209590e-01 6.682791597e-01 -7.244463388e-01 -6.009159290e-02 -2.468600843e-02
1.615000000e+09 -1.379455846e-01 -1.608756063e-02 6.538961877e-01 -7.229958781e-01 6.658591094e-01 -7.266960447e-01 -5.942682744e-02 -2.442434050e-02
1.620000000e+09 -1.378809078e-01 -1.516190719e-02 6.515333020e-01 -7.251605559e-01 6.634323311e-01 -7.289349879e-01 -5.876148603e-02 -2.416980514e-02
1.625000000e+09 -1.378122783e-01 -1.423881084e-02 6.491639422e-01 -7.273149840e-01 6.609988994e-01 -7.311631625e-01 -5.809564132e-02 -2.392239096e-02
1.630000000e+09 -1.377397546e-01 -1.331827181e-02 6.467881901e-01 -7.294591561e-01 6.585588892e-01 -7.333805647e-01 -5.742936566e-02 -2.368208469e-02
1.635000000e+09 -1.376633941e-01 -1.240028816e-02 6.444061273e-01 -7.315930683e-01 6.561123746e-01 -7.355871921e-01 -5.676273106e-02 -2.344887119e-02
1.640000000e+09 -1.375832535e-01 -1.148485581e-02 6.420178348e-01 -7.337167188e-01 6.536594296e-01 -7.377830445e-01 -5.609580907e-02 -2.322273350e-02
1.645000000e+09 -1.374993881e-01 -1.057196862e-02 6.396233931e-01 -7.358301079e-01 6.512001277e-01 -7.399681231e-01 -5.542867079e-02 -2.300365289e-02
1.650000000e+09 -1.374118521e-01 -9.661618516e-03 6.372228822e-01 -7.379332378e-01 6.487345417e-01 -7.421424310e-01 -5.476138672e-02 -2.279160887e-02
1.655000000e+09 -1.373206983e-01 -8.753795520e-03 6.348163812e-01 -7.400261130e-01 6.462627441e-01 -7.443059728e-01 -5.409402679e-02 -2.258657924e-02
1.660000000e+09 -1.372259785e-01 -7.848487871e-03 6.324039686e-01 -7.421087396e-01 6.437848065e-01 -7.464587547e-01 -5.342666026e-02 -2.238854017e-02
1.665000000e+09 -1.371277427e-01 -6.945682099e-03 6.299857221e-01 -7.441811259e-01 6.413008000e-01 -7.486007844e-01 -5.275935564e-02 -2.219746617e-02
1.670000000e+09 -1.370260399e-01 -6.045363108e-03 6.275617183e-01 -7.462432815e-01 6.388107948e-01 -7.507320710e-01 -5.209218070e-02 -2.201333020e-02
1.675000000e+09 -1.369209173e-01 -5.147514265e-03 6.251320331e-01 -7.482952183e-01 6.363148606e-01 -7.528526251e-01 -5.142520238e-02 -2.183610368e-02
1.680000000e+09 -1.368124208e-01 -4.252117482e-03 6.226967413e-01 -7.503369493e-01 6.338130659e-01 -7.549624586e-01 -5.075848675e-02 -2.166575655e-02
1.685000000e+09 -1.367005945e-01 -3.359153306e-03 6.202559165e-01 -7.523684895e-01 6.313054786e-01 -7.570615845e-01 -5.009209899e-02 -2.150225733e-02
1.690000000e+09 -1.365854812e-01 -2.468601001e-03 6.178096314e-01 -7.543898551e-01 6.287921657e-01 -7.591500172e-01 -4.942610331e-02 -2.134557312e-02
1.695000000e+09 -1.364671218e-01 -1.580438633e-03 6.153579573e-01 -7.564010640e-01 6.262731931e-01 -7.612277723e-01 -4.876056294e-02 -2.119566971e-02
1.700000000e+09 -1.363455559e-01 -6.946431561e-04 6.129009646e-01 -7.584021353e-01 6.237486259e-01 -7.632948663e-01 -4.809554008e-02 -2.105251159e-02
1.705000000e+09 -1.362208209e-01 1.888095058e-04 6.104387222e-01 -7.603930893e-01 6.212185280e-01 -7.653513169e-01 -4.743109588e-02 -2.091606201e-02
1.710000000e+09 -1.360929531e-01 1.069944375e-03 6.079712979e-01 -7.623739479e-01 6.186829625e-01 -7.673971427e-01 -4.676729041e-02 -2.078628304e-02
1.715000000e+09 -1.359619867e-01 1.948787338e-03 6.054987581e-01 -7.643447337e-01 6.161419913e-01 -7.694323632e-01 -4.610418259e-02 -2.066313561e-02
1.720000000e+09 -1.358279543e-01 2.825365065e-03 6.030211679e-01 -7.663054708e-01 6.135956752e-01 -7.714569989e-01 -4.544183023e-02 -2.054657956e-02
1.725000000e+09 -1.356908868e-01 3.699704930e-03 6.005385910e-01 -7.682561840e-01 6.110440740e-01 -7.734710711e-01 -4.478028994e-02 -2.043657370e-02
1.730000000e+09 -1.355508132e-01 4.571834931e-03 5.980510897e-01 -7.701968991e-01 6.084872463e-01 -7.754746016e-01 -4.411961715e-02 -2.033307585e-02
1.735000000e+09 -1.354077611e-01 5.441783614e-03 5.955587251e-01 -7.721276431e-01 6.059252496e-01 -7.774676132e-01 -4.345986610e-02 -2.023604291e-02
1.740000000e+09 -1.352617560e-01 6.309579997e-03 5.930615567e-01 -7.740484434e-01 6.033581404e-01 -7.794501293e-01 -4.280108975e-02 -2.014543090e-02
1.745000000e+09 -1.351128219e-01 7.175253491e-03 5.905596424e-01 -7.759593283e-01 6.007859737e-01 -7.814221737e-01 -4.214333986e-02 -2.006119500e-02
1.750000000e+09 -1.349609810e-01 8.038833834e-03 5.880530391e-01 -7.778603268e-01 5.982088035e-01 -7.833837709e-01 -4.148666691e-02 -1.998328964e-02
1.755000000e+09 -1.348062538e-01 8.900351012e-03 5.855418019e-01 -7.797514686e-01 5.956266828e-01 -7.853349458e-01 -4.083112011e-02 -1.991166848e-02
1.760000000e+09 -1.346486590e-01 9.759835194e-03 5.830259845e-01 -7.816327839e-01 5.930396632e-01 -7.872757238e-01 -4.017674738e-02 -1.984628456e-02
1.765000000e+09 -1.344882138e-01 1.061731666e-02 5.805056392e-01 -7.835043032e-01 5.904477951e-01 -7.892061307e-01 -3.952359537e-02 -1.978709025e-02
1.770000000e+09 -1.343249335e-01 1.147282574e-02 5.779808168e-01 -7.853660576e-01 5.878511279e-01 -7.911261926e-01 -3.887170941e-02 -1.973403737e-02
1.775000000e+09 -1.341588319e-01 1.232639274e-02 5.754515667e-01 -7.872180787e-01 5.852497096e-01 -7.930359357e-01 -3.822113356e-02 -1.968707721e-02
1.780000000e+09 -1.339899211e-01 1.317804788e-02 5.729179368e-01 -7.890603981e-01 5.826435871e-01 -7.949353867e-01 -3.757191054e-02 -1.964616058e-02
1.785000000e+09 -1.338182117e-01 1.402782125e-02 5.703799734e-01 -7.908930479e-01 5.800328061e-01 -7.968245724e-01 -3.692408181e-02 -1.961123788e-02
1.790000000e+09 -1.336437125e-01 1.487574271e-02 5.678377216e-01 -7.927160603e-01 5.774174112e-01 -7.987035196e-01 -3.627768750e-02 -1.958225912e-02
1.795000000e+09 -1.334664308e-01 1.572184190e-02 5.652912248e-01 -7.945294676e-01 5.747974457e-01 -8.005722554e-01 -3.563276643e-02 -1.955917396e-02
1.800000000e+09 -1.332863726e-01 1.656614810e-02 5.627405253e-01 -7.963333022e-01 5.721729519e-01 -8.024308068e-01 -3.498935617e-02 -1.954193181e-02
1.805000000e+09 -1.331035420e-01 1.740869024e-02 5.601856637e-01 -7.981275965e-01 5.695439707e-01 -8.042792008e-01 -3.434749296e-02 -1.953048182e-02
1.810000000e+09 -1.329179419e-01 1.824949684e-02 5.576266794e-01 -7.999123831e-01 5.669105421e-01 -8.061174644e-01 -3.370721177e-02 -1.952477294e-02
1.815000000e+09 -1.327295737e-01 1.908859591e-02 5.550636102e-01 -8.016876942e-01 5.642727048e-01 -8.079456246e-01 -3.306854631e-02 -1.952475399e-02
1.820000000e+09 -1.325384373e-01 1.992601496e-02 5.524964927e-01 -8.034535621e-01 5.616304964e-01 -8.097637081e-01 -3.243152901e-02 -1.953037365e-02
1.825000000e+09 -1.323445315e-01 2.076178095e-02 5.499253620e-01 -8.052100188e-01 5.589839535e-01 -8.115717416e-01 -3.179619106e-02 -1.954158058e-02
1.830000000e+09 -1.321478533e-01 2.159592019e-02 5.473502522e-01 -8.069570963e-01 5.563331116e-01 -8.133697515e-01 -3.116256240e-02 -1.955832338e-02
1.835000000e+09 -1.319483988e-01 2.242845837e-02 5.447711957e-01 -8.086948261e-01 5.536780051e-01 -8.151577640e-01 -3.053067177e-02 -1.958055067e-02
1.840000000e+09 -1.317461626e-01 2.325942047e-02 5.421882238e-01 -8.104232396e-01 5.510186671e-01 -8.169358051e-01 -2.990054666e-02 -1.960821114e-02
1.845000000e+09 -1.315411383e-01 2.408883073e-02 5.396013667e-01 -8.121423676e-01 5.483551302e-01 -8.187039003e-01 -2.927221341e-02 -1.964125358e-02
1.850000000e+09 -1.313333181e-01 2.491671264e-02 5.370106530e-01 -8.138522408e-01 5.456874255e-01 -8.204620750e-01 -2.864569715e-02 -1.967962688e-02
1.855000000e+09 -1.311226931e-01 2.574308887e-02 5.344161105e-01 -8.155528895e-01 5.430155833e-01 -8.222103540e-01 -2.802102187e-02 -1.972328013e-02
1.860000000e+09 -1.309092534e-01 2.656798127e-02 5.318177655e-01 -8.172443432e-01 5.403396329e-01 -8.239487619e-01 -2.739821043e-02 -1.977216260e-02
1.865000000e+09 -1.306929879e-01 2.739141080e-02 5.292156433e-01 -8.189266312e-01 5.376596028e-01 -8.256773228e-01 -2.677728455e-02 -1.982622382e-02
1.870000000e+09 -1.304738847e-01 2.821339755e-02 5.266097681e-01 -8.205997824e-01 5.349755204e-01 -8.273960603e-01 -2.615826487e-02 -1.988541357e-02
1.875000000e+09 -1.302519305e-01 2.903396067e-02 5.240001630e-01 -8.222638248e-01 5.322874122e-01 -8.291049975e-01 -2.554117094e-02 -1.994968195e-02
1.880000000e+09 -1.300271116e-01 2.985311836e-02 5.213868499e-01 -8.239187860e-01 5.295953040e-01 -8.308041572e-01 -2.492602128e-02 -2.001897936e-02
1.885000000e+09 -1.297994130e-01 3.067088788e-02 5.187698499e-01 -8.255646931e-01 5.268992205e-01 -8.324935613e-01 -2.431283335e-02 -2.009325661e-02
1.890000000e+09 -1.295688191e-01 3.148728545e-02 5.161491830e-01 -8.272015723e-01 5.241991858e-01 -8.341732316e-01 -2.370162364e-02 -2.017246485e-02
1.895000000e+09 -1.293353133e-01 3.230232632e-02 5.135248682e-01 -8.288294495e-01 5.214952232e-01 -8.358431888e-01 -2.309240762e-02 -2.025655569e-02
1.900000000e+09 -1.290988783e-01 3.311602469e-02 5.108969236e-01 -8.304483496e-01 5.187873550e-01 -8.375034536e-01 -2.248519985e-02 -2.034548116e-02
1.905000000e+09 -1.288594962e-01 3.392839371e-02 5.082653664e-01 -8.320582970e-01 5.160756030e-01 -8.391540455e-01 -2.188001393e-02 -2.043919376e-02
1.910000000e+09 -1.286171483e-01 3.473944549e-02 5.056302130e-01 -8.336593151e-01 5.133599882e-01 -8.407949838e-01 -2.127686256e-02 -2.053764649e-02
1.915000000e+09 -1.283718152e-01 3.554919103e-02 5.029914789e-01 -8.352514270e-01 5.106405310e-01 -8.424262869e-01 -2.067575757e-02 -2.064079286e-02
1.920000000e+09 -1.281234772e-01 3.635764028e-02 5.003491788e-01 -8.368346546e-01 5.079172509e-01 -8.440479727e-01 -2.007670994e-02 -2.074858692e-02
1.925000000e+09 -1.278721137e-01 3.716480209e-02 4.977033268e-01 -8.384090193e-01 5.051901671e-01 -8.456600583e-01 -1.947972983e-02 -2.086098328e-02
1.930000000e+09 -1.276177039e-01 3.797068419e-02 4.950539359e-01 -8.399745416e-01 5.024592981e-01 -8.472625602e-01 -1.888482661e-02 -2.097793711e-02
1.935000000e+09 -1.273602263e-01 3.877529321e-02 4.924010189e-01 -8.415312413e-01 4.997246616e-01 -8.488554941e-01 -1.829200886e-02 -2.109940419e-02
1.940000000e+09 -1.270996591e-01 3.957863466e-02 4.897445876e-01 -8.430791371e-01 4.969862751e-01 -8.504388751e-01 -1.770128446e-02 -2.122534090e-02
1.945000000e+09 -1.268359801e-01 4.038071295e-02 4.870846533e-01 -8.446182472e-01 4.942441554e-01 -8.520127174e-01 -1.711266054e-02 -2.135570424e-02
1.950000000e+09 -1.265691669e-01 4.118153135e-02 4.844212266e-01 -8.461485888e-01 4.914983189e-01 -8.535770348e-01 -1.652614359e-02 -2.149045188e-02
1.955000000e+09 -1.262991965e-01 4.198109201e-02 4.817543178e-01 -8.476701784e-01 4.887487814e-01 -8.551318400e-01 -1.594173942e-02 -2.162954211e-02
1.960000000e+09 -1.260260460e-01 4.277939596e-02 4.790839363e-01 -8.491830314e-01 4.859955586e-01 -8.566771450e-01 -1.535945322e-02 -2.177293390e-02
1.965000000e+09 -1.257496919e-01 4.357644313e-02 4.764100915e-01 -8.506871625e-01 4.832386654e-01 -8.582129614e-01 -1.477928960e-02 -2.192058689e-02
1.970000000e+09 -1.254701110e-01 4.437223230e-02 4.737327919e-01 -8.521825855e-01 4.804781167e-01 -8.597392997e-01 -1.420125260e-02 -2.207246142e-02
1.975000000e+09 -1.251872795e-01 4.516676117e-02 4.710520459e-01 -8.536693134e-01 4.777139268e-01 -8.612561697e-01 -1.362534570e-02 -2.222851852e-02
1.980000000e+09 -1.249011737e-01 4.596002631e-02 4.683678613e-01 -8.551473583e-01 4.749461099e-01 -8.627635806e-01 -1.305157190e-02 -2.238871991e-02
1.985000000e+09 -1.246117700e-01 4.675202319e-02 4.656802456e-01 -8.566167313e-01 4.721746799e-01 -8.642615407e-01 -1.247993371e-02 -2.255302805e-02
1.990000000e+09 -1.243190445e-01 4.754274621e-02 4.629892062e-01 -8.580774429e-01 4.693996502e-01 -8.657500575e-01 -1.191043320e-02 -2.272140608e-02
1.995000000e+09 -1.240229734e-01 4.833218866e-02 4.602947499e-01 -8.595295025e-01 4.666210344e-01 -8.672291378e-01 -1.134307200e-02 -2.289381789e-02
2.000000000e+09 -1.237235332e-01 4.912034277e-02 4.575968835e-01 -8.609729187e-01 4.638388456e-01 -8.686987879e-01 -1.077785135e-02 -2.307022809e-02
2.005000000e+09 -1.234207000e-01 4.990719971e-02 4.548956134e-01 -8.624076994e-01 4.610530968e-01 -8.701590128e-01 -1.021477213e-02 -2.325060200e-02
2.010000000e+09 -1.231144505e-01 5.069274958e-02 4.521909458e-01 -8.638338513e-01 4.582638010e-01 -8.716098173e-01 -9.653834879e-03 -2.343490569e-02
2.015000000e+09 -1.228047612e-01 5.147698146e-02 4.494828870e-01 -8.652513806e-01 4.554709710e-01 -8.730512052e-01 -9.095039827e-03 -2.362310595e-02
2.020000000e+09 -1.224916089e-01 5.225988340e-02 4.467714429e-01 -8.666602924e-01 4.526746194e-01 -8.744831794e-01 -8.538386916e-03 -2.381517030e-02
2.025000000e+09 -1.221749708e-01 5.304144243e-02 4.440566194e-01 -8.680605911e-01 4.498747589e-01 -8.759057425e-01 -7.983875831e-03 -2.401106700e-02
2.030000000e+09 -1.218548240e-01 5.382164460e-02 4.413384224e-01 -8.694522803e-01 4.470714022e-01 -8.773188960e-01 -7.431506028e-03 -2.421076502e-02
2.035000000e+09 -1.215311461e-01 5.460047497e-02 4.386168576e-01 -8.708353627e-01 4.442645619e-01 -8.787226409e-01 -6.881276757e-03 -2.441423407e-02
2.040000000e+09 -1.212039150e-01 5.537791763e-02 4.358919308e-01 -8.722098402e-01 4.414542508e-01 -8.801169772e-01 -6.333187090e-03 -2.462144458e-02
2.045000000e+09 -1.208731089e-01 5.615395573e-02 4.331636479e-01 -8.735757139e-01 4.386404814e-01 -8.815019047e-01 -5.787235944e-03 -2.483236769e-02
2.050000000e+09 -1.205387064e-01 5.692857151e-02 4.304320146e-01 -8.749329841e-01 4.358232665e-01 -8.828774221e-01 -5.243422110e-03 -2.504697526e-02
2.055000000e+09 -1.202006862e-01 5.770174628e-02 4.276970368e-01 -8.762816504e-01 4.330026192e-01 -8.842435275e-01 -4.701744272e-03 -2.526523985e-02
2.060000000e+09 -1.198590279e-01 5.847346047e-02 4.249587207e-01 -8.776217116e-01 4.301785522e-01 -8.856002184e-01 -4.162201035e-03 -2.548713471e-02
2.065000000e+09 -1.195137112e-01 5.924369363e-02 4.222170722e-01 -8.789531656e-01 4.273510789e-01 -8.869474917e-01 -3.624790946e-03 -2.571263381e-02
2.070000000e+09 -1.191647162e-01 6.001242447e-02 4.194720976e-01 -8.802760098e-01 4.245202125e-01 -8.882853436e-01 -3.089512520e-03 -2.594171179e-02
2.075000000e+09 -1.188120239e-01 6.077963088e-02 4.167238034e-01 -8.815902407e-01 4.216859665e-01 -8.896137696e-01 -2.556364260e-03 -2.617434394e-02
2.080000000e+09 -1.184556153e-01 6.154528992e-02 4.139721962e-01 -8.828958543e-01 4.188483546e-01 -8.909327646e-01 -2.025344679e-03 -2.641050626e-02
2.085000000e+09 -1.180954724e-01 6.230937790e-02 4.112172829e-01 -8.841928457e-01 4.160073906e-01 -8.922423232e-01 -1.496452322e-03 -2.665017538e-02
2.090000000e+09 -1.177315772e-01 6.307187032e-02 4.084590704e-01 -8.854812093e-01 4.131630889e-01 -8.935424389e-01 -9.696857887e-04 -2.689332858e-02
2.095000000e+09 -1.173639128e-01 6.383274199e-02 4.056975662e-01 -8.867609391e-01 4.103154637e-01 -8.948331050e-01 -4.450437497e-04 -2.713994376e-02
2.100000000e+09 -1.169924626e-01 6.459196696e-02 4.029327777e-01 -8.880320281e-01 4.074645299e-01 -8.961143142e-01 7.747503025e-05 -2.738999948e-02
2.105000000e+09 -1.166172107e-01 6.534951862e-02 4.001647130e-01 -8.892944691e-01 4.046103024e-01 -8.973860586e-01 5.978716745e-04 -2.764347486e-02
2.110000000e+09 -1.162381417e-01 6.610536967e-02 3.973933802e-01 -8.905482539e-01 4.017527965e-01 -8.986483298e-01 1.116147176e-03 -2.790034965e-02
2.115000000e+09 -1.158552410e-01 6.685949216e-02 3.946187878e-01 -8.917933740e-01 3.988920279e-01 -8.999011189e-01 1.632302379e-03 -2.816060418e-02
2.120000000e+09 -1.154684944e-01 6.761185753e-02 3.918409447e-01 -8.930298201e-01 3.960280127e-01 -9.011444165e-01 2.146337962e-03 -2.842421934e-02
2.125000000e+09 -1.150778888e-01 6.836243663e-02 3.890598602e-01 -8.942575825e-01 3.931607672e-01 -9.023782128e-01 2.658254421e-03 -2.869117658e-02
2.130000000e+09 -1.146834113e-01 6.911119970e-02 3.862755439e-01 -8.954766510e-01 3.902903082e-01 -9.036024974e-01 3.168052053e-03 -2.896145788e-02
2.135000000e+09 -1.142850499e-01 6.985811647e-02 3.834880058e-01 -8.966870147e-01 3.874166527e-01 -9.048172596e-01 3.675730943e-03 -2.923504577e-02
2.140000000e+09 -1.138827934e-01 7.060315612e-02 3.806972564e-01 -8.978886625e-01 3.845398185e-01 -9.060224883e-01 4.181290945e-03 -2.951192326e-02
2.145000000e+09 -1.134766311e-01 7.134628734e-02 3.779033065e-01 -8.990815825e-01 3.816598233e-01 -9.072181720e-01 4.684731671e-03 -2.979207387e-02
2.150000000e+09 -1.130665533e-01 7.208747833e-02 3.751061673e-01 -9.002657626e-01 3.787766858e-01 -9.084042987e-01 5.186052478e-03 -3.007548161e-02
2.155000000e+09 -1.126525506e-01 7.282669687e-02 3.723058508e-01 -9.014411901e-01 3.758904245e-01 -9.095808561e-01 5.685252451e-03 -3.036213091e-02
2.160000000e+09 -1.122346149e-01 7.356391027e-02 3.695023689e-01 -9.026078520e-01 3.730010590e-01 -9.107478318e-01 6.182330396e-03 -3.065200669e-02
2.165000000e+09 -1.118127383e-01 7.429908549e-02 3.666957345e-01 -9.037657350e-01 3.701086089e-01 -9.119052128e-01 6.677284825e-03 -3.094509427e-02
2.170000000e+09 -1.113869139e-01 7.503218906e-02 3.638859607e-01 -9.049148251e-01 3.672130945e-01 -9.130529858e-01 7.170113948e-03 -3.124137938e-02
2.175000000e+09 -1.109571357e-01 7.576318719e-02 3.610730611e-01 -9.060551084e-01 3.643145364e-01 -9.141911375e-01 7.660815660e-03 -3.154084816e-02
2.180000000e+09 -1.105233983e-01 7.649204576e-02 3.582570498e-01 -9.071865703e-01 3.614129559e-01 -9.153196540e-01 8.149387531e-03 -3.184348711e-02
2.185000000e+09 -1.100856970e-01 7.721873034e-02 3.554379416e-01 -9.083091962e-01 3.585083747e-01 -9.164385214e-01 8.635826802e-03 -3.214928309e-02
2.190000000e+09 -1.096440280e-01 7.794320622e-02 3.526157515e-01 -9.094229708e-01 3.556008148e-01 -9.175477256e-01 9.120130370e-03 -3.245822329e-02
2.195000000e+09 -1.091983881e-01 7.866543845e-02 3.497904952e-01 -9.105278790e-01 3.526902991e-01 -9.186472521e-01 9.602294788e-03 -3.277029523e-02
2.200000000e+09 -1.087487752e-01 7.938539182e-02 3.469621890e-01 -9.116239052e-01 3.497768508e-01 -9.197370865e-01 1.008231625e-02 -3.308548673e-02
2.205000000e+09 -1.082951876e-01 8.010303093e-02 3.441308496e-01 -9.127110337e-01 3.468604934e-01 -9.208172140e-01 1.056019059e-02 -3.340378591e-02
2.210000000e+09 -1.078376247e-01 8.081832022e-02 3.412964941e-01 -9.137892484e-01 3.439412514e-01 -9.218876197e-01 1.103591328e-02 -3.372518111e-02
2.215000000e+09 -1.073760864e-01 8.153122393e-02 3.384591406e-01 -9.148585334e-01 3.410191494e-01 -9.229482888e-01 1.150947942e-02 -3.404966096e-02
2.220000000e+09 -1.069105736e-01 8.224170618e-02 3.356188072e-01 -9.159188721e-01 3.380942127e-01 -9.239992062e-01 1.198088372e-02 -3.437721431e-02
2.225000000e+09 -1.064410878e-01 8.294973099e-02 3.327755130e-01 -9.169702484e-01 3.351664672e-01 -9.250403567e-01 1.245012052e-02 -3.470783019e-02
2.230000000e+09 -1.059676313e-01 8.365526226e-02 3.299292772e-01 -9.180126455e-01 3.322359392e-01 -9.260717254e-01 1.291718378e-02 -3.504149786e-02
2.235000000e+09 -1.054902073e-01 8.435826386e-02 3.270801200e-01 -9.190460469e-01 3.293026555e-01 -9.270932968e-01 1.338206708e-02 -3.537820673e-02
2.240000000e+09 -1.050088197e-01 8.505869958e-02 3.242280617e-01 -9.200704359e-01 3.263666436e-01 -9.281050559e-01 1.384476359e-02 -3.571794636e-02
2.245000000e+09 -1.045234731e-01 8.575653320e-02 3.213731236e-01 -9.210857957e-01 3.234279314e-01 -9.291069874e-01 1.430526613e-02 -3.606070645e-02
2.250000000e+09 -1.040341728e-01 8.645172850e-02 3.185153273e-01 -9.220921095e-01 3.204865473e-01 -9.300990761e-01 1.476356708e-02 -3.640647684e-02
2.255000000e+09 -1.035409251e-01 8.714424926e-02 3.156546948e-01 -9.230893605e-01 3.175425203e-01 -9.310813070e-01 1.521965849e-02 -3.675524743e-02
2.260000000e+09 -1.030437367e-01 8.783405933e-02 3.127912489e-01 -9.240775319e-01 3.145958799e-01 -9.320536649e-01 1.567353196e-02 -3.710700821e-02
2.265000000e+09 -1.025426154e-01 8.852112260e-02 3.099250129e-01 -9.250566071e-01 3.116466563e-01 -9.330161349e-01 1.612517876e-02 -3.746174926e-02
2.270000000e+09 -1.020375694e-01 8.920540303e-02 3.070560105e-01 -9.260265691e-01 3.086948798e-01 -9.339687021e-01 1.657458973e-02 -3.781946068e-02
2.275000000e+09 -1.015286078e-01 8.988686470e-02 3.041842660e-01 -9.269874014e-01 3.057405815e-01 -9.349113517e-01 1.702175536e-02 -3.818013258e-02
2.280000000e+09 -1.010157405e-01 9.056547179e-02 3.013098044e-01 -9.279390874e-01 3.027837931e-01 -9.358440692e-01 1.746666574e-02 -3.854375512e-02
2.285000000e+09 -1.004989779e-01 9.124118865e-02 2.984326509e-01 -9.288816106e-01 2.998245465e-01 -9.367668399e-01 1.790931059e-02 -3.891031843e-02
2.290000000e+09 -9.997833124e-02 9.191397974e-02 2.955528315e-01 -9.298149547e-01 2.968628744e-01 -9.376796498e-01 1.834967925e-02 -3.927981261e-02
2.295000000e+09 -9.945381233e-02 9.258380973e-02 2.926703725e-01 -9.307391034e-01 2.938988098e-01 -9.385824845e-01 1.878776072e-02 -3.965222772e-02
2.300000000e+09 -9.892543376e-02 9.325064346e-02 2.897853009e-01 -9.316540408e-01 2.909323863e-01 -9.394753304e-01 1.922354359e-02 -4.002755376e-02
2.305000000e+09 -9.839320873e-02 9.391444600e-02 2.868976441e-01 -9.325597508e-01 2.879636378e-01 -9.403581736e-01 1.965701614e-02 -4.040578067e-02
2.310000000e+09 -9.785715114e-02 9.457518263e-02 2.840074299e-01 -9.334562177e-01 2.849925989e-01 -9.412310008e-01 2.008816626e-02 -4.078689828e-02
2.315000000e+09 -9.731727548e-02 9.523281887e-02 2.811146868e-01 -9.343434262e-01 2.820193046e-01 -9.420937987e-01 2.051698153e-02 -4.117089632e-02
2.320000000e+09 -9.677359693e-02 9.588732051e-02 2.782194436e-01 -9.352213609e-01 2.790437902e-01 -9.429465546e-01 2.094344916e-02 -4.155776439e-02
2.325000000e+09 -9.622613124e-02 9.653865361e-02 2.753217296e-01 -9.360900068e-01 2.760660916e-01 -9.437892557e-01 2.136755604e-02 -4.194749196e-02
2.330000000e+09 -9.567489480e-02 9.718678450e-02 2.724215747e-01 -9.369493490e-01 2.730862451e-01 -9.446218898e-01 2.178928876e-02 -4.234006834e-02
2.335000000e+09 -9.511990458e-02 9.783167984e-02 2.695190090e-01 -9.377993731e-01 2.701042874e-01 -9.454444449e-01 2.220863357e-02 -4.273548268e-02
2.340000000e+09 -9.456117814e-02 9.847330658e-02 2.666140633e-01 -9.386400648e-01 2.671202557e-01 -9.462569094e-01 2.262557641e-02 -4.313372394e-02
2.345000000e+09 -9.399873360e-02 9.911163203e-02 2.637067687e-01 -9.394714103e-01 2.641341875e-01 -9.470592718e-01 2.304010296e-02 -4.353478089e-02
2.350000000e+09 -9.343258965e-02 9.974662381e-02 2.607971566e-01 -9.402933957e-01 2.611461207e-01 -9.478515213e-01 2.345219856e-02 -4.393864207e-02
2.355000000e+09 -9.286276551e-02 1.003782499e-01 2.578852591e-01 -9.411060079e-01 2.581560937e-01 -9.486336473e-01 2.386184833e-02 -4.434529583e-02
2.360000000e+09 -9.228928092e-02 1.010064787e-01 2.549711084e-01 -9.419092338e-01 2.551641452e-01 -9.494056396e-01 2.426903708e-02 -4.475473025e-02
2.365000000e+09 -9.171215615e-02 1.016312789e-01 2.520547372e-01 -9.427030609e-01 2.521703143e-01 -9.501674884e-01 2.467374938e-02 -4.516693319e-02
2.370000000e+09 -9.113141196e-02 1.022526196e-01 2.491361787e-01 -9.434874768e-01 2.491746403e-01 -9.509191843e-01 2.507596957e-02 -4.558189223e-02
2.375000000e+09 -9.054706959e-02 1.028704704e-01 2.462154664e-01 -9.442624697e-01 2.461771630e-01 -9.516607183e-01 2.547568174e-02 -4.599959469e-02
2.380000000e+09 -8.995915074e-02 1.034848012e-01 2.432926339e-01 -9.450280280e-01 2.431779225e-01 -9.523920818e-01 2.587286976e-02 -4.642002759e-02
2.385000000e+09 -8.936767758e-02 1.040955824e-01 2.403677155e-01 -9.457841406e-01 2.401769591e-01 -9.531132669e-01 2.626751730e-02 -4.684317767e-02
2.390000000e+09 -8.877267271e-02 1.047027846e-01 2.374407455e-01 -9.465307968e-01 2.371743135e-01 -9.538242658e-01 2.665960782e-02 -4.726903137e-02
2.395000000e+09 -8.817415914e-02 1.053063792e-01 2.345117588e-01 -9.472679863e-01 2.341700268e-01 -9.545250713e-01 2.704912462e-02 -4.769757481e-02
2.400000000e+09 -8.757216030e-02 1.059063378e-01 2.315807905e-01 -9.479956992e-01 2.311641401e-01 -9.552156767e-01 2.743605079e-02 -4.812879376e-02
2.405000000e+09 -8.696670001e-02 1.065026325e-01 2.286478758e-01 -9.487139260e-01 2.281566949e-01 -9.558960758e-01 2.782036931e-02 -4.856267370e-02
2.410000000e+09 -8.635780244e-02 1.070952358e-01 2.257130504e-01 -9.494226577e-01 2.251477329e-01 -9.565662627e-01 2.820206298e-02 -4.899919974e-02
2.415000000e+09 -8.574549214e-02 1.076841208e-01 2.227763501e-01 -9.501218858e-01 2.221372962e-01 -9.572262323e-01 2.858111447e-02 -4.943835665e-02
2.420000000e+09 -8.512979400e-02 1.082692609e-01 2.198378111e-01 -9.508116020e-01 2.191254268e-01 -9.578759797e-01 2.895750636e-02 -4.988012885e-02
2.425000000e+09 -8.451073323e-02 1.088506302e-01 2.168974696e-01 -9.514917988e-01 2.161121671e-01 -9.585155008e-01 2.933122111e-02 -5.032450037e-02
2.430000000e+09 -8.388833534e-02 1.094282031e-01 2.139553623e-01 -9.521624690e-01 2.130975598e-01 -9.591447916e-01 2.970224109e-02 -5.077145489e-02
2.435000000e+09 -8.326262615e-02 1.100019545e-01 2.110115258e-01 -9.528236058e-01 2.100816475e-01 -9.597638490e-01 3.007054859e-02 -5.122097572e-02
2.440000000e+09 -8.263363173e-02 1.105718599e-01 2.080659971e-01 -9.534752029e-01 2.070644730e-01 -9.603726703e-01 3.043612587e-02 -5.167304576e-02
2.445000000e+09 -8.200137844e-02 1.111378950e-01 2.051188133e-01 -9.541172547e-01 2.040460795e-01 -9.609712533e-01 3.079895510e-02 -5.212764754e-02
2.450000000e+09 -8.136589285e-02 1.117000364e-01 2.021700115e-01 -9.547497558e-01 2.010265099e-01 -9.615595962e-01 3.115901846e-02 -5.258476320e-02
2.455000000e+09 -8.072720178e-02 1.122582608e-01 1.992196292e-01 -9.553727014e-01 1.980058076e-01 -9.621376981e-01 3.151629810e-02 -5.304437447e-02
2.460000000e+09 -8.008533226e-02 1.128125458e-01 1.962677038e-01 -9.559860873e-01 1.949840159e-01 -9.627055582e-01 3.187077617e-02 -5.350646269e-02
2.465000000e+09 -7.944031150e-02 1.133628691e-01 1.933142729e-01 -9.565899095e-01 1.919611782e-01 -9.632631765e-01 3.222243483e-02 -5.397100878e-02
2.470000000e+09 -7.879216689e-02 1.139092091e-01 1.903593743e-01 -9.571841649e-01 1.889373379e-01 -9.638105536e-01 3.257125628e-02 -5.443799328e-02
2.475000000e+09 -7.814092599e-02 1.144515447e-01 1.874030456e-01 -9.577688505e-01 1.859125386e-01 -9.643476904e-01 3.291722276e-02 -5.490739630e-02
2.480000000e+09 -7.748661650e-02 1.149898553e-01 1.844453247e-01 -9.583439642e-01 1.828868238e-01 -9.648745885e-01 3.326031657e-02 -5.537919754e-02
2.485000000e+09 -7.682926625e-02 1.155241206e-01 1.814862495e-01 -9.589095040e-01 1.798602370e-01 -9.653912500e-01 3.360052010e-02 -5.585337629e-02
2.490000000e+09 -7.616890318e-02 1.160543211e-01 1.785258577e-01 -9.594654686e-01 1.768328217e-01 -9.658976775e-01 3.393781581e-02 -5.632991145e-02
2.495000000e+09 -7.550555533e-02 1.165804376e-01 1.755641874e-01 -9.600118573e-01 1.738046216e-01 -9.663938743e-01 3.427218627e-02 -5.680878146e-02
2.500000000e+09 -7.483925084e-02 1.171024514e-01 1.726012764e-01 -9.605486697e-01 1.707756801e-01 -9.668798442e-01 3.460361420e-02 -5.728996440e-02
2.505000000e+09 -7.417001787e-02 1.176203443e-01 1.696371626e-01 -9.610759061e-01 1.677460406e-01 -9.673555912e-01 3.493208242e-02 -5.777343791e-02
2.510000000e+09 -7.349788468e-02 1.181340986e-01 1.666718838e-01 -9.615935670e-01 1.647157465e-01 -9.678211204e-01 3.525757393e-02 -5.825917922e-02
2.515000000e+09 -7.282287955e-02 1.186436971e-01 1.637054779e-01 -9.621016536e-01 1.616848411e-01 -9.682764369e-01 3.558007188e-02 -5.874716515e-02
2.520000000e+09 -7.214503077e-02 1.191491229e-01 1.607379825e-01 -9.626001677e-01 1.586533676e-01 -9.687215468e-01 3.589955961e-02 -5.923737213e-02
2.525000000e+09 -7.146436665e-02 1.196503599e-01 1.577694354e-01 -9.630891113e-01 1.556213691e-01 -9.691564563e-01 3.621602066e-02 -5.972977617e-02
2.530000000e+09 -7.078091549e-02 1.201473920e-01 1.547998740e-01 -9.635684871e-01 1.525888885e-01 -9.695811724e-01 3.652943878e-02 -6.022435289e-02
2.535000000e+09 -7.009470557e-02 1.206402041e-01 1.518293359e-01 -9.640382982e-01 1.495559688e-01 -9.699957026e-01 3.683979794e-02 -6.072107752e-02
2.540000000e+09 -6.940576513e-02 1.211287811e-01 1.488578584e-01 -9.644985482e-01 1.465226524e-01 -9.704000548e-01 3.714708237e-02 -6.121992489e-02
2.545000000e+09 -6.871412235e-02 1.216131086e-01 1.458854786e-01 -9.649492411e-01 1.434889821e-01 -9.707942374e-01 3.745127654e-02 -6.172086943e-02
2.550000000e+09 -6.801980538e-02 1.220931725e-01 1.429122337e-01 -9.653903815e-01 1.404549999e-01 -9.711782594e-01 3.775236519e-02 -6.222388521e-02
2.555000000e+09 -6.732284227e-02 1.225689591e-01 1.399381605e-01 -9.658219743e-01 1.374207482e-01 -9.715521303e-01 3.805033335e-02 -6.272894593e-02
2.560000000e+09 -6.662326097e-02 1.230404553e-01 1.369632957e-01 -9.662440248e-01 1.343862687e-01 -9.719158600e-01 3.834516635e-02 -6.323602489e-02
2.565000000e+09 -6.592108937e-02 1.235076483e-01 1.339876758e-01 -9.666565391e-01 1.313516033e-01 -9.722694590e-01 3.863684982e-02 -6.374509505e-02
2.570000000e+09 -6.521635520e-02 1.239705257e-01 1.310113372e-01 -9.670595234e-01 1.283167932e-01 -9.726129380e-01 3.892536974e-02 -6.425612901e-02
2.575000000e+09 -6.450908610e-02 1.244290755e-01 1.280343160e-01 -9.674529843e-01 1.252818797e-01 -9.729463085e-01 3.921071239e-02 -6.476909903e-02
2.580000000e+09 -6.379930955e-02 1.248832860e-01 1.250566480e-01 -9.678369291e-01 1.222469037e-01 -9.732695823e-01 3.949286443e-02 -6.528397702e-02
2.585000000e+09 -6.308705290e-02 1.253331461e-01 1.220783688e-01 -9.682113653e-01 1.192119060e-01 -9.735827716e-01 3.977181288e-02 -6.580073456e-02
2.590000000e+09 -6.237234334e-02 1.257786449e-01 1.190995139e-01 -9.685763008e-01 1.161769267e-01 -9.738858891e-01 4.004754512e-02 -6.631934290e-02
2.595000000e+09 -6.165520787e-02 1.262197718e-01 1.161201183e-01 -9.689317439e-01 1.131420061e-01 -9.741789479e-01 4.032004895e-02 -6.683977301e-02
2.600000000e+09 -6.093567333e-02 1.266565167e-01 1.131402169e-01 -9.692777035e-01 1.101071838e-01 -9.744619616e-01 4.058931252e-02 -6.736199551e-02
2.605000000e+09 -6.021376637e-02 1.270888697e-01 1.101598442e-01 -9.696141886e-01 1.070724992e-01 -9.747349441e-01 4.085532444e-02 -6.788598076e-02
2.610000000e+09 -5.948951344e-02 1.275168213e-01 1.071790345e-01 -9.699412085e-01 1.040379916e-01 -9.749979097e-01 4.111807372e-02 -6.841169883e-02
2.615000000e+09 -5.876294078e-02 1.279403624e-01 1.041978217e-01 -9.702587732e-01 1.010036995e-01 -9.752508731e-01 4.137754979e-02 -6.893911952e-02
2.620000000e+09 -5.803407441e-02 1.283594839e-01 1.012162394e-01 -9.705668928e-01 9.796966145e-02 -9.754938494e-01 4.163374255e-02 -6.946821236e-02
2.625000000e+09 -5.730294014e-02 1.287741772e-01 9.823432098e-02 -9.708655777e-01 9.493591540e-02 -9.757268541e-01 4.188664234e-02 -6.999894664e-02
2.630000000e+09 -5.656956355e-02 1.291844341e-01 9.525209929e-02 -9.711548386e-01 9.190249902e-02 -9.759499028e-01 4.213623995e-02 -7.053129142e-02
2.635000000e+09 -5.583396996e-02 1.295902463e-01 9.226960696e-02 -9.714346867e-01 8.886944957e-02 -9.761630118e-01 4.238252666e-02 -7.106521552e-02
2.640000000e+09 -5.509618446e-02 1.299916061e-01 8.928687625e-02 -9.717051333e-01 8.583680393e-02 -9.763661973e-01 4.262549422e-02 -7.160068757e-02
2.645000000e+09 -5.435623190e-02 1.303885058e-01 8.630393904e-02 -9.719661900e-01 8.280459857e-02 -9.765594763e-01 4.286513488e-02 -7.213767599e-02
2.650000000e+09 -5.361413685e-02 1.307809380e-01 8.332082684e-02 -9.722178687e-01 7.977286956e-02 -9.767428656e-01 4.310144137e-02 -7.267614900e-02
2.655000000e+09 -5.286992363e-02 1.311688956e-01 8.033757079e-02 -9.724601816e-01 7.674165254e-02 -9.769163826e-01 4.333440694e-02 -7.321607469e-02
2.660000000e+09 -5.212361630e-02 1.315523714e-01 7.735420164e-02 -9.726931409e-01 7.371098275e-02 -9.770800449e-01 4.356402534e-02 -7.375742095e-02
2.665000000e+09 -5.137523864e-02 1.319313588e-01 7.437074974e-02 -9.729167593e-01 7.068089498e-02 -9.772338702e-01 4.379029084e-02 -7.430015556e-02
2.670000000e+09 -5.062481415e-02 1.323058510e-01 7.138724504e-02 -9.731310496e-01 6.765142359e-02 -9.773778766e-01 4.401319823e-02 -7.484424616e-02
2.675000000e+09 -4.987236607e-02 1.326758415e-01 6.840371711e-02 -9.733360248e-01 6.462260253e-02 -9.775120823e-01 4.423274284e-02 -7.538966026e-02
2.680000000e+09 -4.911791734e-02 1.330413239e-01 6.542019508e-02 -9.735316978e-01 6.159446525e-02 -9.776365059e-01 4.444892053e-02 -7.593636531e-02
2.685000000e+09 -4.836149062e-02 1.334022921e-01 6.243670769e-02 -9.737180822e-01 5.856704481e-02 -9.777511659e-01 4.466172769e-02 -7.648432865e-02
2.690000000e+09 -4.760310830e-02 1.337587398e-01 5.945328326e-02 -9.738951913e-01 5.554037377e-02 -9.778560811e-01 4.487116126e-02 -7.703351756e-02
2.695000000e+09 -4.684279246e-02 1.341106610e-01 5.646994967e-02 -9.740630387e-01 5.251448425e-02 -9.779512706e-01 4.507721873e-02 -7.758389927e-02
2.700000000e+09 -4.608056491e-02 1.344580497e-01 5.348673440e-02 -9.742216380e-01 4.948940793e-02 -9.780367534e-01 4.527989812e-02 -7.813544096e-02
2.705000000e+09 -4.531644718e-02 1.348009000e-01 5.050366449e-02 -9.743710030e-01 4.646517599e-02 -9.781125488e-01 4.547919803e-02 -7.868810982e-02
2.710000000e+09 -4.455046048e-02 1.351392061e-01 4.752076656e-02 -9.745111477e-01 4.344181919e-02 -9.781786761e-01 4.567511760e-02 -7.924187302e-02
2.715000000e+09 -4.378262578e-02 1.354729621e-01 4.453806680e-02 -9.746420858e-01 4.041936778e-02 -9.782351548e-01 4.586765651e-02 -7.979669773e-02
2.720000000e+09 -4.301296372e-02 1.358021621e-01 4.155559096e-02 -9.747638314e-01 3.739785158e-02 -9.782820043e-01 4.605681503e-02 -8.035255117e-02
2.725000000e+09 -4.224149469e-02 1.361268005e-01 3.857336436e-02 -9.748763985e-01 3.437729993e-02 -9.783192442e-01 4.624259395e-02 -8.090940061e-02
2.730000000e+09 -4.146823879e-02 1.364468713e-01 3.559141191e-02 -9.749798010e-01 3.135774170e-02 -9.783468941e-01 4.642499463e-02 -8.146721336e-02
2.735000000e+09 -4.069321583e-02 1.367623687e-01 3.260975808e-02 -9.750740530e-01 2.833920531e-02 -9.783649736e-01 4.660401900e-02 -8.202595682e-02
2.740000000e+09 -3.991644537e-02 1.370732868e-01 2.962842688e-02 -9.751591684e-01 2.532171870e-02 -9.783735024e-01 4.677966951e-02 -8.258559849e-02
2.745000000e+09 -3.913794668e-02 1.373796197e-01 2.664744195e-02 -9.752351612e-01 2.230530937e-02 -9.783725000e-01 4.695194920e-02 -8.314610598e-02
2.750000000e+09 -3.835773879e-02 1.376813614e-01 2.366682647e-02 -9.753020452e-01 1.929000433e-02 -9.783619861e-01 4.712086163e-02 -8.370744703e-02
2.755000000e+09 -3.757584043e-02 1.379785057e-01 2.068660319e-02 -9.753598344e-01 1.627583016e-02 -9.783419803e-01 4.728641091e-02 -8.426958952e-02
2.760000000e+09 -3.679227013e-02 1.382710466e-01 1.770679448e-02 -9.754085424e-01 1.326281298e-02 -9.783125020e-01 4.744860170e-02 -8.483250151e-02
2.765000000e+09 -3.600704613e-02 1.385589776e-01 1.472742226e-02 -9.754481828e-01 1.025097848e-02 -9.782735706e-01 4.760743919e-02 -8.539615122e-02
2.770000000e+09 -3.522018644e-02 1.388422923e-01 1.174850806e-02 -9.754787692e-01 7.240351872e-03 -9.782252054e-01 4.776292910e-02 -8.596050708e-02
2.775000000e+09 -3.443170886e-02 1.391209843e-01 8.770073002e-03 -9.755003150e-01 4.230957961e-03 -9.781674258e-01 4.791507768e-02 -8.652553772e-02
2.780000000e+09 -3.364163093e-02 1.393950467e-01 5.792137817e-03 -9.755128334e-01 1.222821110e-03 -9.781002507e-01 4.806389169e-02 -8.709121201e-02
2.785000000e+09 -3.284997000e-02 1.396644727e-01 2.814722836e-03 -9.755163375e-01 -1.784034741e-03 -9.780236992e-01 4.820937843e-02 -8.765749906e-02
2.790000000e+09 -3.205674320e-02 1.399292552e-01 -1.621519914e-04 -9.755108401e-01 -4.789586070e-03 -9.779377900e-01 4.835154567e-02 -8.822436824e-02
2.795000000e+09 -3.126196748e-02 1.401893870e-01 -3.138467091e-03 -9.754963540e-01 -7.793809763e-03 -9.778425418e-01 4.849040170e-02 -8.879178922e-02
2.800000000e+09 -3.046565957e-02 1.404448607e-01 -6.114203256e-03 -9.754728915e-01 -1.079668311e-02 -9.777379730e-01 4.862595530e-02 -8.935973192e-02
2.805000000e+09 -2.966783606e-02 1.406956685e-01 -9.089341642e-03 -9.754404650e-01 -1.379818378e-02 -9.776241019e-01 4.875821570e-02 -8.992816660e-02
2.810000000e+09 -2.886851335e-02 1.409418026e-01 -1.206386375e-02 -9.753990864e-01 -1.679828985e-02 -9.775009464e-01 4.888719264e-02 -9.049706385e-02
2.815000000e+09 -2.806770769e-02 1.411832548e-01 -1.503775144e-02 -9.753487676e-01 -1.979697975e-02 -9.773685244e-01 4.901289628e-02 -9.106639457e-02
2.820000000e+09 -2.726543520e-02 1.414200168e-01 -1.801098686e-02 -9.752895199e-01 -2.279423228e-02 -9.772268534e-01 4.913533727e-02 -9.163613004e-02
2.825000000e+09 -2.646171186e-02 1.416520799e-01 -2.098355253e-02 -9.752213545e-01 -2.579002658e-02 -9.770759508e-01 4.925452665e-02 -9.220624190e-02
2.830000000e+09 -2.565655354e-02 1.418794353e-01 -2.395543124e-02 -9.751442823e-01 -2.878434214e-02 -9.769158334e-01 4.937047591e-02 -9.277670217e-02
2.835000000e+09 -2.484997600e-02 1.421020737e-01 -2.692660609e-02 -9.750583140e-01 -3.177715879e-02 -9.767465182e-01 4.948319696e-02 -9.334748327e-02
2.840000000e+09 -2.404199491e-02 1.423199858e-01 -2.989706046e-02 -9.749634597e-01 -3.476845665e-02 -9.765680214e-01 4.959270208e-02 -9.391855803e-02
2.845000000e+09 -2.323262588e-02 1.425331617e-01 -3.286677800e-02 -9.748597293e-01 -3.775821615e-02 -9.763803593e-01 4.969900395e-02 -9.448989970e-02
2.850000000e+09 -2.242188446e-02 1.427415913e-01 -3.583574263e-02 -9.747471324e-01 -4.074641802e-02 -9.761835476e-01 4.980211563e-02 -9.506148198e-02
2.855000000e+09 -2.160978613e-02 1.429452644e-01 -3.880393848e-02 -9.746256781e-01 -4.373304325e-02 -9.759776018e-01 4.990205050e-02 -9.563327899e-02
2.860000000e+09 -2.079634638e-02 1.431441701e-01 -4.177134993e-02 -9.744953754e-01 -4.671807309e-02 -9.757625370e-01 4.999882230e-02 -9.620526535e-02
2.865000000e+09 -1.998158067e-02 1.433382976e-01 -4.473796158e-02 -9.743562325e-01 -4.970148905e-02 -9.755383680e-01 5.009244511e-02 -9.677741611e-02
2.870000000e+09 -1.916550445e-02 1.435276354e-01 -4.770375822e-02 -9.742082576e-01 -5.268327285e-02 -9.753051092e-01 5.018293327e-02 -9.734970683e-02
2.875000000e+09 -1.834813322e-02 1.437121719e-01 -5.066872480e-02 -9.740514583e-01 -5.566340643e-02 -9.750627746e-01 5.027030146e-02 -9.792211356e-02
2.880000000e+09 -1.752948250e-02 1.438918950e-01 -5.363284647e-02 -9.738858417e-01 -5.864187193e-02 -9.748113779e-01 5.035456459e-02 -9.849461284e-02
2.885000000e+09 -1.670956788e-02 1.440667923e-01 -5.659610850e-02 -9.737114146e-01 -6.161865166e-02 -9.745509323e-01 5.043573784e-02 -9.906718174e-02
2.890000000e+09 -1.588840502e-02 1.442368513e-01 -5.955849630e-02 -9.735281835e-01 -6.459372810e-02 -9.742814506e-01 5.051383663e-02 -9.963979784e-02
2.895000000e+09 -1.506600966e-02 1.444020587e-01 -6.251999540e-02 -9.733361541e-01 -6.756708388e-02 -9.740029453e-01 5.058887658e-02 -1.002124392e-01
2.900000000e+09 -1.424239767e-02 1.445624011e-01 -6.548059141e-02 -9.731353320e-01 -7.053870174e-02 -9.737154285e-01 5.066087351e-02 -1.007850846e-01
2.905000000e+09 -1.341758505e-02 1.447178649e-01 -6.844027003e-02 -9.729257222e-01 -7.350856455e-02 -9.734189117e-01 5.072984344e-02 -1.013577131e-01
2.910000000e+09 -1.259158792e-02 1.448684357e-01 -7.139901701e-02 -9.727073292e-01 -7.647665525e-02 -9.731134061e-01 5.079580250e-02 -1.019303045e-01
2.915000000e+09 -1.176442262e-02 1.450140992e-01 -7.435681813e-02 -9.724801571e-01 -7.944295685e-02 -9.727989224e-01 5.085876701e-02 -1.025028391e-01
2.920000000e+09 -1.093610563e-02 1.451548405e-01 -7.731365920e-02 -9.722442096e-01 -8.240745244e-02 -9.724754711e-01 5.091875335e-02 -1.030752978e-01
2.925000000e+09 -1.010665367e-02 1.452906444e-01 -8.026952603e-02 -9.719994897e-01 -8.537012512e-02 -9.721430620e-01 5.097577804e-02 -1.036476619e-01
2.930000000e+09 -9.276083664e-03 1.454214954e-01 -8.322440439e-02 -9.717460001e-01 -8.833095800e-02 -9.718017044e-01 5.102985764e-02 -1.042199134e-01
2.935000000e+09 -8.444412802e-03 1.455473774e-01 -8.617828004e-02 -9.714837431e-01 -9.128993418e-02 -9.714514075e-01 5.108100878e-02 -1.047920350e-01
2.940000000e+09 -7.611658534e-03 1.456682744e-01 -8.913113865e-02 -9.712127203e-01 -9.424703676e-02 -9.710921798e-01 5.112924811e-02 -1.053640097e-01
2.945000000e+09 -6.777838597e-03 1.457841696e-01 -9.208296581e-02 -9.709329330e-01 -9.720224876e-02 -9.707240295e-01 5.117459228e-02 -1.059358213e-01
2.950000000e+09 -5.942971038e-03 1.458950462e-01 -9.503374702e-02 -9.706443819e-01 -1.001555532e-01 -9.703469641e-01 5.121705793e-02 -1.065074540e-01
2.955000000e+09 -5.107074231e-03 1.460008869e-01 -9.798346765e-02 -9.703470674e-01 -1.031069328e-01 -9.699609910e-01 5.125666167e-02 -1.070788927e-01
2.960000000e+09 -4.270166900e-03 1.461016740e-01 -1.009321129e-01 -9.700409892e-01 -1.060563705e-01 -9.695661170e-01 5.129342002e-02 -1.076501228e-01
2.965000000e+09 -3.432268135e-03 1.461973898e-01 -1.038796679e-01 -9.697261466e-01 -1.090038489e-01 -9.691623485e-01 5.132734946e-02 -1.082211302e-01
2.970000000e+09 -2.593397416e-03 1.462880160e-01 -1.068261174e-01 -9.694025385e-01 -1.119493504e-01 -9.687496913e-01 5.135846632e-02 -1.087919017e-01
2.975000000e+09 -1.753574633e-03 1.463735341e-01 -1.097714461e-01 -9.690701634e-01 -1.148928574e-01 -9.683281511e-01 5.138678681e-02 -1.093624242e-01
2.980000000e+09 -9.128201013e-04 1.464539253e-01 -1.127156384e-01 -9.687290192e-01 -1.178343521e-01 -9.678977330e-01 5.141232701e-02 -1.099326855e-01
2.985000000e+09 -7.115458711e-05 1.465291706e-01 -1.156586786e-01 -9.683791033e-01 -1.207738162e-01 -9.674584416e-01 5.143510279e-02 -1.105026738e-01
2.990000000e+09 7.714006770e-04 1.465992506e-01 -1.186005505e-01 -9.680204128e-01 -1.237112315e-01 -9.670102813e-01 5.145512984e-02 -1.110723778e-01
2.995000000e+09 1.614823971e-03 1.466641457e-01 -1.215412376e-01 -9.676529443e-01 -1.266465795e-01 -9.665532560e-01 5.147242362e-02 -1.116417869e-01
3.000000000e+09 2.459093069e-03 1.467238361e-01 -1.244807233e-01 -9.672766941e-01 -1.295798412e-01 -9.660873693e-01 5.148699935e-02 -1.122108910e-01
3.005000000e+09 3.304185220e-03 1.467783019e-01 -1.274189906e-01 -9.668916578e-01 -1.325109976e-01 -9.656126242e-01 5.149887197e-02 -1.127796803e-01
3.010000000e+09 4.150077131e-03 1.468275226e-01 -1.303560220e-01 -9.664978309e-01 -1.354400292e-01 -9.651290236e-01 5.150805615e-02 -1.133481458e-01
3.015000000e+09 4.996744946e-03 1.468714780e-01 -1.332917997e-01 -9.660952084e-01 -1.383669162e-01 -9.646365700e-01 5.151456622e-02 -1.139162788e-01
3.020000000e+09 5.844164230e-03 1.469101474e-01 -1.362263055e-01 -9.656837847e-01 -1.412916385e-01 -9.641352654e-01 5.151841620e-02 -1.144840712e-01
3.025000000e+09 6.692309955e-03 1.469435101e-01 -1.391595209e-01 -9.652635543e-01 -1.442141756e-01 -9.636251117e-01 5.151961973e-02 -1.150515152e-01
3.030000000e+09 7.541156477e-03 1.469715451e-01 -1.420914268e-01 -9.648345108e-01 -1.471345065e-01 -9.631061104e-01 5.151819010e-02 -1.156186038e-01
3.035000000e+09 8.390677524e-03 1.469942314e-01 -1.450220036e-01 -9.643966480e-01 -1.500526101e-01 -9.625782627e-01 5.151414017e-02 -1.161853300e-01
3.040000000e+09 9.240846181e-03 1.470115481e-01 -1.479512315e-01 -9.639499590e-01 -1.529684645e-01 -9.620415695e-01 5.150748241e-02 -1.167516876e-01
3.045000000e+09 1.009163487e-02 1.470234738e-01 -1.508790899e-01 -9.634944368e-01 -1.558820476e-01 -9.614960316e-01 5.149822883e-02 -1.173176706e-01
3.050000000e+09 1.094301534e-02 1.470299874e-01 -1.538055579e-01 -9.630300740e-01 -1.587933369e-01 -9.609416493e-01 5.148639098e-02 -1.178832734e-01
3.055000000e+09 1.179495866e-02 1.470310676e-01 -1.567306139e-01 -9.625568631e-01 -1.617023091e-01 -9.603784230e-01 5.147197995e-02 -1.184484909e-01
3.060000000e+09 1.264743518e-02 1.470266932e-01 -1.596542359e-01 -9.620747962e-01 -1.646089408e-01 -9.598063527e-01 5.145500631e-02 -1.190133182e-01
3.065000000e+09 1.350041457e-02 1.470168430e-01 -1.625764012e-01 -9.615838653e-01 -1.675132079e-01 -9.592254384e-01 5.143548015e-02 -1.195777509e-01
3.070000000e+09 1.435386573e-02 1.470014958e-01 -1.654970868e-01 -9.610840621e-01 -1.704150858e-01 -9.586356796e-01 5.141341098e-02 -1.201417846e-01
3.075000000e+09 1.520775686e-02 1.469806305e-01 -1.684162688e-01 -9.605753782e-01 -1.733145494e-01 -9.580370762e-01 5.138880782e-02 -1.207054156e-01
3.080000000e+09 1.606205541e-02 1.469542262e-01 -1.713339228e-01 -9.600578051e-01 -1.762115730e-01 -9.574296277e-01 5.136167908e-02 -1.212686401e-01
3.085000000e+09 1.691672807e-02 1.469222620e-01 -1.742500237e-01 -9.595313342e-01 -1.791061304e-01 -9.568133334e-01 5.133203261e-02 -1.218314547e-01
3.090000000e+09 1.777174076e-02 1.468847173e-01 -1.771645461e-01 -9.589959566e-01 -1.819981949e-01 -9.561881929e-01 5.129987567e-02 -1.223938562e-01
3.095000000e+09 1.862705867e-02 1.468415714e-01 -1.800774636e-01 -9.584516637e-01 -1.848877392e-01 -9.555542056e-01 5.126521493e-02 -1.229558416e-01
3.100000000e+09 1.948264616e-02 1.467928043e-01 -1.829887493e-01 -9.578984464e-01 -1.877747353e-01 -9.549113708e-01 5.122805641e-02 -1.235174081e-01
3.105000000e+09 2.033846687e-02 1.467383958e-01 -1.858983756e-01 -9.573362962e-01 -1.906591547e-01 -9.542596881e-01 5.118840554e-02 -1.240785528e-01
3.110000000e+09 2.119448362e-02 1.466783263e-01 -1.888063143e-01 -9.567652040e-01 -1.935409684e-01 -9.535991570e-01 5.114626709e-02 -1.246392731e-01
3.115000000e+09 2.205065845e-02 1.466125763e-01 -1.917125364e-01 -9.561851612e-01 -1.964201466e-01 -9.529297771e-01 5.110164520e-02 -1.251995665e-01
3.120000000e+09 2.290695264e-02 1.465411269e-01 -1.946170125e-01 -9.555961591e-01 -1.992966592e-01 -9.522515483e-01 5.105454334e-02 -1.257594304e-01
3.125000000e+09 2.376332666e-02 1.464639592e-01 -1.975197121e-01 -9.549981892e-01 -2.021704753e-01 -9.515644704e-01 5.100496435e-02 -1.263188622e-01
3.130000000e+09 2.461974022e-02 1.463810553e-01 -2.004206043e-01 -9.543912432e-01 -2.050415633e-01 -9.508685437e-01 5.095291038e-02 -1.268778594e-01
3.135000000e+09 2.547615222e-02 1.462923971e-01 -2.033196575e-01 -9.537753128e-01 -2.079098912e-01 -9.501637685e-01 5.089838293e-02 -1.274364194e-01
3.140000000e+09 2.633252083e-02 1.461979674e-01 -2.062168394e-01 -9.531503901e-01 -2.107754263e-01 -9.494501455e-01 5.084138283e-02 -1.279945395e-01
3.145000000e+09 2.718880340e-02 1.460977495e-01 -2.091121170e-01 -9.525164675e-01 -2.136381354e-01 -9.487276755e-01 5.078191024e-02 -1.285522168e-01
3.150000000e+09 2.804495656e-02 1.459917272e-01 -2.120054564e-01 -9.518735375e-01 -2.164979845e-01 -9.479963600e-01 5.071996464e-02 -1.291094483e-01
3.155000000e+09 2.890093617e-02 1.458798847e-01 -2.148968234e-01 -9.512215932e-01 -2.193549393e-01 -9.472562005e-01 5.065554487e-02 -1.296662308e-01
3.160000000e+09 2.975669734e-02 1.457622072e-01 -2.177861829e-01 -9.505606278e-01 -2.222089647e-01 -9.465071991e-01 5.058864909e-02 -1.302225609e-01
3.165000000e+09 3.061219447e-02 1.456386803e-01 -2.206734991e-01 -9.498906352e-01 -2.250600251e-01 -9.457493583e-01 5.051927480e-02 -1.307784349e-01
3.170000000e+09 3.146738122e-02 1.455092903e-01 -2.235587358e-01 -9.492116096e-01 -2.279080843e-01 -9.449826812e-01 5.044741887e-02 -1.313338488e-01
3.175000000e+09 3.232221057e-02 1.453740245e-01 -2.264418557e-01 -9.485235456e-01 -2.307531057e-01 -9.442071711e-01 5.037307752e-02 -1.318887983e-01
3.180000000e+09 3.317663480e-02 1.452328707e-01 -2.293228214e-01 -9.478264384e-01 -2.335950519e-01 -9.434228323e-01 5.029624633e-02 -1.324432786e-01
3.185000000e+09 3.403060553e-02 1.450858176e-01 -2.322015944e-01 -9.471202839e-01 -2.364338853e-01 -9.426296692e-01 5.021692028e-02 -1.329972847e-01
3.190000000e+09 3.488407374e-02 1.449328547e-01 -2.350781359e-01 -9.464050785e-01 -2.392695676e-01 -9.418276872e-01 5.013509374e-02 -1.335508110e-01
3.195000000e+09 3.573698977e-02 1.447739725e-01 -2.379524064e-01 -9.456808192e-01 -2.421020600e-01 -9.410168921e-01 5.005076049e-02 -1.341038514e-01
3.200000000e+09 3.658930338e-02 1.446091623e-01 -2.408243659e-01 -9.449475037e-01 -2.449313235e-01 -9.401972907e-01 4.996391376e-02 -1.346563994e-01
3.205000000e+09 3.744096374e-02 1.444384164e-01 -2.436939737e-01 -9.442051305e-01 -2.477573182e-01 -9.393688903e-01 4.987454621e-02 -1.352084478e-01
3.210000000e+09 3.829191950e-02 1.442617281e-01 -2.465611886e-01 -9.434536989e-01 -2.505800043e-01 -9.385316990e-01 4.978264998e-02 -1.357599889e-01
3.215000000e+09 3.914211876e-02 1.440790917e-01 -2.494259692e-01 -9.426932088e-01 -2.533993412e-01 -9.376857257e-01 4.968821671e-02 -1.363110143e-01
3.220000000e+09 3.999150915e-02 1.438905025e-01 -2.522882732e-01 -9.419236611e-01 -2.562152882e-01 -9.368309802e-01 4.959123756e-02 -1.368615151e-01
3.225000000e+09 4.084003785e-02 1.436959570e-01 -2.551480581e-01 -9.411450575e-01 -2.590278043e-01 -9.359674732e-01 4.949170326e-02 -1.374114815e-01
3.230000000e+09 4.168765163e-02 1.434954527e-01 -2.580052810e-01 -9.403574008e-01 -2.618368479e-01 -9.350952162e-01 4.938960409e-02 -1.379609030e-01
3.235000000e+09 4.253429686e-02 1.432889883e-01 -2.608598985e-01 -9.395606944e-01 -2.646423774e-01 -9.342142218e-01 4.928492996e-02 -1.385097685e-01
3.240000000e+09 4.337991959e-02 1.430765636e-01 -2.637118668e-01 -9.387549431e-01 -2.674443510e-01 -9.333245033e-01 4.917767043e-02 -1.390580659e-01
3.245000000e+09 4.422446555e-02 1.428581797e-01 -2.665611421e-01 -9.379401524e-01 -2.702427266e-01 -9.324260754e-01 4.906781475e-02 -1.396057823e-01
3.250000000e+09 4.506788024e-02 1.426338390e-01 -2.694076800e-01 -9.371163291e-01 -2.730374620e-01 -9.315189534e-01 4.895535188e-02 -1.401529040e-01
3.255000000e+09 4.591010891e-02 1.424035448e-01 -2.722514359e-01 -9.362834809e-01 -2.758285148e-01 -9.306031541e-01 4.884027055e-02 -1.406994163e-01
3.260000000e+09 4.675109667e-02 1.421673021e-01 -2.750923653e-01 -9.354416167e-01 -2.786158427e-01 -9.296786950e-01 4.872255928e-02 -1.412453038e-01
3.265000000e+09 4.759078850e-02 1.419251170e-01 -2.779304232e-01 -9.345907466e-01 -2.813994034e-01 -9.287455950e-01 4.860220647e-02 -1.417905500e-01
3.270000000e+09 4.842912933e-02 1.416769969e-01 -2.807655648e-01 -9.337308819e-01 -2.841791544e-01 -9.278038741e-01 4.847920040e-02 -1.423351372e-01
3.275000000e+09 4.926606404e-02 1.414229505e-01 -2.835977451e-01 -9.328620349e-01 -2.869550535e-01 -9.268535534e-01 4.835352929e-02 -1.428790471e-01
3.280000000e+09 5.010153758e-02 1.411629881e-01 -2.864269190e-01 -9.319842195e-01 -2.897270585e-01 -9.258946551e-01 4.822518139e-02 -1.434222600e-01
3.285000000e+09 5.093549497e-02 1.408971212e-01 -2.892530417e-01 -9.310974506e-01 -2.924951275e-01 -9.249272029e-01 4.809414495e-02 -1.439647555e-01
3.290000000e+09 5.176788139e-02 1.406253626e-01 -2.920760683e-01 -9.302017446e-01 -2.952592189e-01 -9.239512216e-01 4.796040838e-02 -1.445065118e-01
3.295000000e+09 5.259864222e-02 1.403477266e-01 -2.948959543e-01 -9.292971189e-01 -2.980192912e-01 -9.229667370e-01 4.782396022e-02 -1.450475063e-01
3.300000000e+09 5.342772312e-02 1.400642290e-01 -2.977126551e-01 -9.283835926e-01 -3.007753033e-01 -9.219737766e-01 4.768478925e-02 -1.455877149e-01
3.305000000e+09 5.425507006e-02 1.397748869e-01 -3.005261268e-01 -9.274611860e-01 -3.035272147e-01 -9.209723689e-01 4.754288452e-02 -1.461271129e-01
3.310000000e+09 5.508062944e-02 1.394797188e-01 -3.033363255e-01 -9.265299207e-01 -3.062749852e-01 -9.199625437e-01 4.739823544e-02 -1.466656739e-01
3.315000000e+09 5.590434808e-02 1.391787447e-01 -3.061432078e-01 -9.255898198e-01 -3.090185752e-01 -9.189443322e-01 4.725083182e-02 -1.472033708e-01
3.320000000e+09 5.672617334e-02 1.388719859e-01 -3.089467309e-01 -9.246409077e-01 -3.117579457e-01 -9.179177669e-01 4.710066398e-02 -1.477401752e-01
3.325000000e+09 5.754605317e-02 1.385594653e-01 -3.117468524e-01 -9.236832104e-01 -3.144930584e-01 -9.168828816e-01 4.694772274e-02 -1.482760574e-01
3.330000000e+09 5.836393619e-02 1.382412070e-01 -3.145435306e-01 -9.227167550e-01 -3.172238756e-01 -9.158397113e-01 4.679199959e-02 -1.488109867e-01
3.335000000e+09 5.917977174e-02 1.379172367e-01 -3.173367245e-01 -9.217415704e-01 -3.199503608e-01 -9.147882923e-01 4.663348666e-02 -1.493449313e-01
3.340000000e+09 5.999350995e-02 1.375875813e-01 -3.201263938e-01 -9.207576865e-01 -3.226724778e-01 -9.137286624e-01 4.647217689e-02 -1.498778580e-01
3.345000000e+09 6.080510185e-02 1.372522693e-01 -3.229124990e-01 -9.197651349e-01 -3.253901918e-01 -9.126608606e-01 4.630806403e-02 -1.504097327e-01
3.350000000e+09 6.161449939e-02 1.369113303e-01 -3.256950016e-01 -9.187639487e-01 -3.281034689e-01 -9.115849269e-01 4.614114275e-02 -1.509405199e-01
3.355000000e+09 6.242165555e-02 1.365647953e-01 -3.284738639e-01 -9.177541620e-01 -3.308122761e-01 -9.105009031e-01 4.597140870e-02 -1.514701833e-01
3.360000000e+09 6.322652439e-02 1.362126966e-01 -3.312490495e-01 -9.167358107e-01 -3.335165819e-01 -9.094088316e-01 4.579885862e-02 -1.519986852e-01
3.365000000e+09 6.402906116e-02 1.358550680e-01 -3.340205229e-01 -9.157089317e-01 -3.362163558e-01 -9.083087567e-01 4.562349039e-02 -1.525259870e-01
3.370000000e+09 6.482922231e-02 1.354919442e-01 -3.367882499e-01 -9.146735637e-01 -3.389115686e-01 -9.072007233e-01 4.544530312e-02 -1.530520489e-01
3.375000000e+09 6.562696563e-02 1.351233612e-01 -3.395521976e-01 -9.136297463e-01 -3.416021926e-01 -9.060847777e-01 4.526429722e-02 -1.535768302e-01
3.380000000e+09 6.642225030e-02 1.347493562e-01 -3.423123344e-01 -9.125775206e-01 -3.442882015e-01 -9.049609674e-01 4.508047449e-02 -1.541002890e-01
3.385000000e+09 6.721503695e-02 1.343699675e-01 -3.450686302e-01 -9.115169289e-01 -3.469695705e-01 -9.038293410e-01 4.489383823e-02 -1.546223826e-01
3.390000000e+09 6.800528775e-02 1.339852345e-01 -3.478210563e-01 -9.104480149e-01 -3.496462765e-01 -9.026899478e-01 4.470439325e-02 -1.551430674e-01
3.395000000e+09 6.879296647e-02 1.335951975e-01 -3.505695856e-01 -9.093708233e-01 -3.523182980e-01 -9.015428386e-01 4.451214602e-02 -1.556622987e-01
3.400000000e+09 6.957803859e-02 1.331998978e-01 -3.533141928e-01 -9.082854000e-01 -3.549856151e-01 -9.003880648e-01 4.431710474e-02 -1.561800312e-01
3.405000000e+09 7.036047129e-02 1.327993776e-01 -3.560548543e-01 -9.071917920e-01 -3.576482101e-01 -8.992256787e-01 4.411927939e-02 -1.566962187e-01
3.410000000e+09 7.114023363e-02 1.323936798e-01 -3.587915481e-01 -9.060900474e-01 -3.603060668e-01 -8.980557337e-01 4.391868182e-02 -1.572108142e-01
3.415000000e+09 7.191729652e-02 1.319828483e-01 -3.615242544e-01 -9.049802153e-01 -3.629591711e-01 -8.968782835e-01 4.371532586e-02 -1.577237701e-01
3.420000000e+09 7.269163285e-02 1.315669273e-01 -3.642529551e-01 -9.038623455e-01 -3.656075110e-01 -8.956933830e-01 4.350922738e-02 -1.582350384e-01
3.425000000e+09 7.346321754e-02 1.311459618e-01 -3.669776344e-01 -9.027364889e-01 -3.682510765e-01 -8.945010874e-01 4.330040436e-02 -1.587445703e-01
3.430000000e+09 7.423202757e-02 1.307199973e-01 -3.696982782e-01 -9.016026972e-01 -3.708898598e-01 -8.933014526e-01 4.308887696e-02 -1.592523166e-01
3.435000000e+09 7.499804209e-02 1.302890797e-01 -3.724148750e-01 -9.004610226e-01 -3.735238552e-01 -8.920945347e-01 4.287466764e-02 -1.597582279e-01
3.440000000e+09 7.576124247e-02 1.298532552e-01 -3.751274153e-01 -8.993115181e-01 -3.761530593e-01 -8.908803904e-01 4.265780117e-02 -1.602622542e-01
3.445000000e+09 7.652161232e-02 1.294125701e-01 -3.778358918e-01 -8.981542372e-01 -3.787774712e-01 -8.896590767e-01 4.243830475e-02 -1.607643458e-01
3.450000000e+09 7.727913758e-02 1.289670709e-01 -3.805402999e-01 -8.969892337e-01 -3.813970922e-01 -8.884306507e-01 4.221620806e-02 -1.612644524e-01
3.455000000e+09 7.803380657e-02 1.285168041e-01 -3.832406371e-01 -8.958165620e-01 -3.840119260e-01 -8.871951694e-01 4.199154334e-02 -1.617625239e-01
3.460000000e+09 7.878560999e-02 1.280618160e-01 -3.859369035e-01 -8.946362765e-01 -3.866219789e-01 -8.859526900e-01 4.176434540e-02 -1.622585105e-01
3.465000000e+09 7.953454104e-02 1.276021529e-01 -3.886291016e-01 -8.934484319e-01 -3.892272596e-01 -8.847032694e-01 4.153465176e-02 -1.627523624e-01
3.470000000e+09 8.028059537e-02 1.271378604e-01 -3.913172366e-01 -8.922530829e-01 -3.918277795e-01 -8.834469642e-01 4.130250265e-02 -1.632440302e-01
3.475000000e+09 8.102377120e-02 1.266689839e-01 -3.940013163e-01 -8.910502840e-01 -3.944235523e-01 -8.821838309e-01 4.106794107e-02 -1.637334650e-01
3.480000000e+09 8.176406928e-02 1.261955680e-01 -3.966813510e-01 -8.898400896e-01 -3.970145946e-01 -8.809139250e-01 4.083101286e-02 -1.642206185e-01
3.485000000e+09 8.250149296e-02 1.257176565e-01 -3.993573538e-01 -8.886225537e-01 -3.996009255e-01 -8.796373017e-01 4.059176672e-02 -1.647054430e-01
3.490000000e+09 8.323604817e-02 1.252352925e-01 -4.020293403e-01 -8.873977297e-01 -4.021825666e-01 -8.783540153e-01 4.035025425e-02 -1.651878918e-01
3.495000000e+09 8.396774347e-02 1.247485180e-01 -4.046973292e-01 -8.861656706e-01 -4.047595426e-01 -8.770641189e-01 4.010652998e-02 -1.656679191e-01
3.500000000e+09 8.469659003e-02 1.242573737e-01 -4.073613415e-01 -8.849264285e-01 -4.073318803e-01 -8.757676650e-01 3.986065144e-02 -1.661454804e-01
